11 55
1 2 2
 1 3 3
 1 4 4
 1 5 5
 1 6 6
 1 7 7
 1 8 8
 1 9 9
 1 10 10
 1 11 11
 2 3 6
 2 4 8
 2 5 10
 2 6 12
 2 7 14
 2 8 16
 2 9 18
 2 10 20
 2 11 22
 3 4 12
 3 5 15
 3 6 18
 3 7 21
 3 8 24
 3 9 27
 3 10 30
 3 11 33
 4 5 20
 4 6 24
 4 7 28
 4 8 32
 4 9 36
 4 10 40
 4 11 44
 5 6 30
 5 7 35
 5 8 40
 5 9 45
 5 10 50
 5 11 55
 6 7 42
 6 8 48
 6 9 54
 6 10 60
 6 11 66
 7 8 56
 7 9 63
 7 10 70
 7 11 77
 8 9 72
 8 10 80
 8 11 88
 9 10 90
 9 11 99
 10 11 10
 